sat
(= |goto_symex::&92;guard#1| true)
(= |goto_symex::&92;guard#2| true)
(= |goto_symex::&92;guard#3| true)
(= |goto_symex::&92;guard#4| false)
(= |nondet_symex::nondet0| true)
(= |nondet_symex::nondet1| false)
(= |nondet_symex::nondet2| true)
(= |nondet_symex::nondet3| false)
(= |nondet_symex::nondet6| false)
(= |memory_model::choice_rf_1_25_0_11_T_0| false)
(= |memory_model::choice_rf_1_25_2_25_T_1| true)
(= |memory_model::choice_rf_1_25_3_34_T_2| false)
(= |memory_model::choice_rf_2_24_0_11_T_3| false)
(= |memory_model::choice_rf_2_24_1_26_T_4| false)
(= |memory_model::choice_rf_2_24_3_34_T_5| true)
(= |memory_model::choice_rf_3_33_0_11_T_6| true)
(= |memory_model::choice_rf_3_33_1_26_T_7| false)
(= |memory_model::choice_rf_3_33_2_25_T_8| false)
(= |memory_model::choice_rf_0_60_0_9_T_9| false)
(= |memory_model::choice_rf_0_60_0_56_T_10| true)
(= |memory_model::choice_rf_0_65_0_9_T_11| false)
(= |memory_model::choice_rf_0_65_0_56_T_12| false)
(= |memory_model::choice_rf_0_65_0_61_T_13| true)
(= |memory_model::choice_rf_0_72_0_37_F_14| false)
(= |memory_model::choice_rf_0_72_1_18_F_15| false)
(= |memory_model::choice_rf_0_72_2_16_F_16| false)
(= |memory_model::choice_rf_0_72_3_30_F_17| true)
(= |memory_model::choice_rf_1_6_0_37_F_18| true)
(= |memory_model::choice_rf_1_6_0_83_F_19| false)
(= |memory_model::choice_rf_1_6_2_16_F_20| false)
(= |memory_model::choice_rf_1_6_3_30_F_21| false)
(= |memory_model::choice_rf_2_9_0_37_F_22| false)
(= |memory_model::choice_rf_2_9_0_83_F_23| false)
(= |memory_model::choice_rf_2_9_1_18_F_24| true)
(= |memory_model::choice_rf_2_9_3_30_F_25| false)
(= |memory_model::choice_rf_3_19_0_37_F_26| false)
(= |memory_model::choice_rf_3_19_0_83_F_27| false)
(= |memory_model::choice_rf_3_19_1_18_F_28| false)
(= |memory_model::choice_rf_3_19_2_16_F_29| true)
(= |memory_model::choice_rf_0_69_0_12_F_30| false)
(= |memory_model::choice_rf_0_69_1_24_F_31| false)
(= |memory_model::choice_rf_0_69_2_23_F_32| false)
(= |memory_model::choice_rf_0_69_3_32_F_33| true)
(= |memory_model::choice_rf_1_23_0_12_F_34| false)
(= |memory_model::choice_rf_1_23_2_23_F_35| true)
(= |memory_model::choice_rf_1_23_3_32_F_36| false)
(= |memory_model::choice_rf_2_22_0_12_F_37| true)
(= |memory_model::choice_rf_2_22_1_24_F_38| false)
(= |memory_model::choice_rf_2_22_3_32_F_39| false)
(= |memory_model::choice_rf_3_31_0_12_F_40| false)
(= |memory_model::choice_rf_3_31_1_24_F_41| true)
(= |memory_model::choice_rf_3_31_2_23_F_42| false)
(= |memory_model::choice_rf_0_88_0_13_F_43| true)
(= |memory_model::choice_rf_0_88_1_10_F_44| false)
(= |memory_model::choice_rf_0_90_0_24_F_45| false)
(= |memory_model::choice_rf_0_90_1_14_F_46| true)
(= |memory_model::choice_rf_0_85_0_30_F_47| false)
(= |memory_model::choice_rf_0_85_2_2_F_48| true)
(= |memory_model::choice_rf_0_86_0_31_F_49| false)
(= |memory_model::choice_rf_0_86_2_10_F_50| true)
(= |memory_model::choice_rf_0_71_0_32_F_51| false)
(= |memory_model::choice_rf_0_71_0_70_F_52| true)
(= |memory_model::choice_rf_0_84_0_33_F_53| false)
(= |memory_model::choice_rf_0_95_0_33_F_54| false)
(= |memory_model::choice_rf_0_95_0_92_F_55| true)
(= |memory_model::choice_rf_0_96_0_33_F_56| false)
(= |memory_model::choice_rf_0_96_0_92_F_57| true)
(= |memory_model::choice_rf_0_77_0_40_F_58| true)
(= |memory_model::choice_rf_3_6_0_40_F_59| true)
(= |memory_model::choice_rf_3_6_0_80_F_60| false)
(= |memory_model::choice_rf_1_4_0_41_F_61| true)
(= |memory_model::choice_rf_3_3_0_41_F_62| false)
(= |memory_model::choice_rf_3_3_1_16_F_63| true)
(= |memory_model::choice_rf_2_7_0_42_F_64| true)
(= |memory_model::choice_rf_3_2_0_42_F_65| false)
(= |memory_model::choice_rf_3_2_2_12_F_66| true)
(= |memory_model::choice_rf_3_4_0_43_F_67| true)
(= |memory_model::choice_rf_3_23_0_43_F_68| false)
(= |memory_model::choice_rf_3_23_3_10_F_69| true)
(= |memory_model::choice_rf_0_76_0_44_F_70| false)
(= |memory_model::choice_rf_0_76_3_14_F_71| true)
(= |memory_model::choice_rf_3_5_0_44_F_72| false)
(= |memory_model::choice_rf_3_5_0_79_F_73| false)
(= |memory_model::choice_rf_1_1_0_45_F_74| true)
(= |memory_model::choice_rf_1_1_3_13_F_75| false)
(= |memory_model::choice_rf_3_1_0_45_F_76| false)
(= |memory_model::choice_rf_3_1_1_21_F_77| false)
(= |memory_model::choice_rf_2_4_0_46_F_78| true)
(= |memory_model::choice_rf_2_4_3_12_F_79| false)
(= |memory_model::choice_rf_3_0_0_46_F_80| false)
(= |memory_model::choice_rf_3_0_2_11_F_81| false)
(= |memory_model::choice_rf_3_7_0_47_F_82| false)
(= |memory_model::choice_rf_3_24_0_47_F_83| false)
(= |memory_model::choice_rf_3_24_3_11_F_84| true)
(= |memory_model::choice_rf_0_75_0_50_F_85| false)
(= |memory_model::choice_rf_0_75_1_12_F_86| false)
(= |memory_model::choice_rf_0_75_2_19_F_87| false)
(= |memory_model::choice_rf_0_75_3_17_F_88| true)
(= |memory_model::choice_rf_1_3_0_50_F_89| true)
(= |memory_model::choice_rf_1_3_2_19_F_90| false)
(= |memory_model::choice_rf_1_3_3_17_F_91| false)
(= |memory_model::choice_rf_2_5_0_50_F_92| false)
(= |memory_model::choice_rf_2_5_1_12_F_93| true)
(= |memory_model::choice_rf_2_5_3_17_F_94| false)
(= |memory_model::choice_rf_3_9_0_50_F_95| false)
(= |memory_model::choice_rf_3_9_1_12_F_96| false)
(= |memory_model::choice_rf_3_9_2_19_F_97| true)
(= |memory_model::choice_rf_3_22_0_50_F_98| false)
(= |memory_model::choice_rf_3_22_1_12_F_99| false)
(= |memory_model::choice_rf_3_22_2_19_F_100| false)
(= |memory_model::choice_rf_3_22_3_17_F_101| true)
(= |memory_model::choice_rf_0_78_0_51_F_102| false)
(= |memory_model::choice_rf_0_78_1_20_F_103| false)
(= |memory_model::choice_rf_0_78_2_14_F_104| false)
(= |memory_model::choice_rf_0_78_3_15_F_105| false)
(= |memory_model::choice_rf_0_78_3_29_F_106| true)
(= |memory_model::choice_rf_1_5_0_51_F_107| true)
(= |memory_model::choice_rf_1_5_0_82_F_108| false)
(= |memory_model::choice_rf_1_5_2_14_F_109| false)
(= |memory_model::choice_rf_1_5_3_15_F_110| false)
(= |memory_model::choice_rf_1_5_3_29_F_111| false)
(= |memory_model::choice_rf_2_8_0_51_F_112| false)
(= |memory_model::choice_rf_2_8_0_82_F_113| false)
(= |memory_model::choice_rf_2_8_1_20_F_114| true)
(= |memory_model::choice_rf_2_8_3_15_F_115| false)
(= |memory_model::choice_rf_2_8_3_29_F_116| false)
(= |memory_model::choice_rf_3_8_0_51_F_117| false)
(= |memory_model::choice_rf_3_8_0_82_F_118| false)
(= |memory_model::choice_rf_3_8_1_20_F_119| false)
(= |memory_model::choice_rf_3_8_2_14_F_120| true)
(= |memory_model::choice_rf_3_25_0_51_F_121| false)
(= |memory_model::choice_rf_3_25_0_82_F_122| false)
(= |memory_model::choice_rf_3_25_1_20_F_123| false)
(= |memory_model::choice_rf_3_25_2_14_F_124| false)
(= |memory_model::choice_rf_3_25_3_15_F_125| true)
(= |memory_model::choice_rf_0_73_0_52_F_126| false)
(= |memory_model::choice_rf_0_73_1_19_F_127| false)
(= |memory_model::choice_rf_0_73_2_15_F_128| false)
(= |memory_model::choice_rf_0_73_3_18_F_129| true)
(= |memory_model::choice_rf_1_0_0_52_F_130| true)
(= |memory_model::choice_rf_1_0_2_15_F_131| false)
(= |memory_model::choice_rf_1_0_3_18_F_132| false)
(= |memory_model::choice_rf_2_3_0_52_F_133| false)
(= |memory_model::choice_rf_2_3_1_19_F_134| true)
(= |memory_model::choice_rf_2_3_3_18_F_135| false)
(= |memory_model::choice_rf_3_20_0_52_F_136| false)
(= |memory_model::choice_rf_3_20_1_19_F_137| false)
(= |memory_model::choice_rf_3_20_2_15_F_138| false)
(= |memory_model::choice_rf_3_20_3_18_F_139| true)
(= |memory_model::choice_rf_0_74_0_53_F_140| false)
(= |memory_model::choice_rf_0_74_1_13_F_141| false)
(= |memory_model::choice_rf_0_74_2_13_F_142| false)
(= |memory_model::choice_rf_0_74_3_16_F_143| false)
(= |memory_model::choice_rf_0_74_3_28_F_144| true)
(= |memory_model::choice_rf_1_2_0_53_F_145| true)
(= |memory_model::choice_rf_1_2_0_81_F_146| false)
(= |memory_model::choice_rf_1_2_2_13_F_147| false)
(= |memory_model::choice_rf_1_2_3_16_F_148| false)
(= |memory_model::choice_rf_1_2_3_28_F_149| false)
(= |memory_model::choice_rf_2_6_0_53_F_150| false)
(= |memory_model::choice_rf_2_6_0_81_F_151| false)
(= |memory_model::choice_rf_2_6_1_13_F_152| true)
(= |memory_model::choice_rf_2_6_3_16_F_153| false)
(= |memory_model::choice_rf_2_6_3_28_F_154| false)
(= |memory_model::choice_rf_3_21_0_53_F_155| false)
(= |memory_model::choice_rf_3_21_0_81_F_156| false)
(= |memory_model::choice_rf_3_21_1_13_F_157| false)
(= |memory_model::choice_rf_3_21_2_13_F_158| false)
(= |memory_model::choice_rf_3_21_3_16_F_159| true)
(= |memory_model::choice_rf_0_87_0_54_F_160| false)
(= |memory_model::choice_rf_0_87_1_22_F_161| false)
(= |memory_model::choice_rf_0_87_2_0_F_162| true)
(= |memory_model::choice_rf_2_1_0_54_F_163| false)
(= |memory_model::choice_rf_2_1_1_22_F_164| false)
(= |memory_model::choice_rf_2_1_2_0_F_165| true)
(= |memory_model::choice_rf_0_91_0_35_F_166| false)
(= |memory_model::choice_rf_0_91_1_9_F_167| false)
(= |memory_model::choice_rf_0_89_0_2_F_168| true)
(= |memory_model::choice_ws-ext_0_11_1_26_T_169| true)
(= |memory_model::choice_ws-ext_0_11_2_25_T_170| true)
(= |memory_model::choice_ws-ext_0_11_3_34_T_171| true)
(= |memory_model::choice_ws-ext_1_26_2_25_T_172| false)
(= |memory_model::choice_ws-ext_1_26_3_34_T_173| false)
(= |memory_model::choice_ws-ext_2_25_3_34_T_174| false)
(= |memory_model::choice_ws-ext_0_37_1_18_F_175| true)
(= |memory_model::choice_ws-ext_0_37_2_16_F_176| true)
(= |memory_model::choice_ws-ext_0_37_3_30_F_177| true)
(= |memory_model::choice_ws-ext_0_83_1_18_F_178| false)
(= |memory_model::choice_ws-ext_0_83_2_16_F_179| false)
(= |memory_model::choice_ws-ext_0_83_3_30_F_180| false)
(= |memory_model::choice_ws-ext_1_18_2_16_F_181| true)
(= |memory_model::choice_ws-ext_1_18_3_30_F_182| true)
(= |memory_model::choice_ws-ext_2_16_3_30_F_183| true)
(= |memory_model::choice_ws-ext_0_12_1_24_F_184| true)
(= |memory_model::choice_ws-ext_0_12_2_23_F_185| true)
(= |memory_model::choice_ws-ext_0_12_3_32_F_186| true)
(= |memory_model::choice_ws-ext_1_24_2_23_F_187| false)
(= |memory_model::choice_ws-ext_1_24_3_32_F_188| true)
(= |memory_model::choice_ws-ext_2_23_3_32_F_189| true)
(= |memory_model::choice_ws-ext_0_13_1_10_F_190| true)
(= |memory_model::choice_ws-ext_0_93_1_10_F_191| false)
(= |memory_model::choice_ws-ext_0_24_1_14_F_192| true)
(= |memory_model::choice_ws-ext_0_25_1_7_F_193| true)
(= |memory_model::choice_ws-ext_0_30_2_2_F_194| true)
(= |memory_model::choice_ws-ext_0_31_2_10_F_195| true)
(= |memory_model::choice_ws-ext_0_38_1_15_F_196| true)
(= |memory_model::choice_ws-ext_0_38_2_18_F_197| true)
(= |memory_model::choice_ws-ext_1_15_2_18_F_198| true)
(= |memory_model::choice_ws-ext_0_39_1_17_F_199| true)
(= |memory_model::choice_ws-ext_0_39_2_17_F_200| true)
(= |memory_model::choice_ws-ext_1_17_2_17_F_201| true)
(= |memory_model::choice_ws-ext_0_41_1_16_F_202| true)
(= |memory_model::choice_ws-ext_0_42_2_12_F_203| true)
(= |memory_model::choice_ws-ext_0_43_3_10_F_204| true)
(= |memory_model::choice_ws-ext_0_43_3_27_F_205| true)
(= |memory_model::choice_ws-ext_0_44_3_14_F_206| true)
(= |memory_model::choice_ws-ext_0_79_3_14_F_207| false)
(= |memory_model::choice_ws-ext_0_45_1_21_F_208| true)
(= |memory_model::choice_ws-ext_0_45_3_13_F_209| true)
(= |memory_model::choice_ws-ext_1_21_3_13_F_210| true)
(= |memory_model::choice_ws-ext_0_46_2_11_F_211| true)
(= |memory_model::choice_ws-ext_0_46_3_12_F_212| true)
(= |memory_model::choice_ws-ext_2_11_3_12_F_213| true)
(= |memory_model::choice_ws-ext_0_47_3_11_F_214| true)
(= |memory_model::choice_ws-ext_0_47_3_26_F_215| true)
(= |memory_model::choice_ws-ext_0_50_1_12_F_216| true)
(= |memory_model::choice_ws-ext_0_50_2_19_F_217| true)
(= |memory_model::choice_ws-ext_0_50_3_17_F_218| true)
(= |memory_model::choice_ws-ext_1_12_2_19_F_219| true)
(= |memory_model::choice_ws-ext_1_12_3_17_F_220| true)
(= |memory_model::choice_ws-ext_2_19_3_17_F_221| true)
(= |memory_model::choice_ws-ext_0_51_1_20_F_222| true)
(= |memory_model::choice_ws-ext_0_51_2_14_F_223| true)
(= |memory_model::choice_ws-ext_0_51_3_15_F_224| true)
(= |memory_model::choice_ws-ext_0_51_3_29_F_225| true)
(= |memory_model::choice_ws-ext_0_82_1_20_F_226| false)
(= |memory_model::choice_ws-ext_0_82_2_14_F_227| false)
(= |memory_model::choice_ws-ext_0_82_3_15_F_228| false)
(= |memory_model::choice_ws-ext_0_82_3_29_F_229| false)
(= |memory_model::choice_ws-ext_1_20_2_14_F_230| true)
(= |memory_model::choice_ws-ext_1_20_3_15_F_231| true)
(= |memory_model::choice_ws-ext_1_20_3_29_F_232| true)
(= |memory_model::choice_ws-ext_2_14_3_15_F_233| true)
(= |memory_model::choice_ws-ext_2_14_3_29_F_234| true)
(= |memory_model::choice_ws-ext_0_52_1_19_F_235| true)
(= |memory_model::choice_ws-ext_0_52_2_15_F_236| true)
(= |memory_model::choice_ws-ext_0_52_3_18_F_237| true)
(= |memory_model::choice_ws-ext_1_19_2_15_F_238| true)
(= |memory_model::choice_ws-ext_1_19_3_18_F_239| true)
(= |memory_model::choice_ws-ext_2_15_3_18_F_240| true)
(= |memory_model::choice_ws-ext_0_53_1_13_F_241| true)
(= |memory_model::choice_ws-ext_0_53_2_13_F_242| true)
(= |memory_model::choice_ws-ext_0_53_3_16_F_243| true)
(= |memory_model::choice_ws-ext_0_53_3_28_F_244| true)
(= |memory_model::choice_ws-ext_0_81_1_13_F_245| false)
(= |memory_model::choice_ws-ext_0_81_2_13_F_246| false)
(= |memory_model::choice_ws-ext_0_81_3_16_F_247| false)
(= |memory_model::choice_ws-ext_0_81_3_28_F_248| false)
(= |memory_model::choice_ws-ext_1_13_2_13_F_249| true)
(= |memory_model::choice_ws-ext_1_13_3_16_F_250| true)
(= |memory_model::choice_ws-ext_1_13_3_28_F_251| true)
(= |memory_model::choice_ws-ext_2_13_3_16_F_252| true)
(= |memory_model::choice_ws-ext_2_13_3_28_F_253| true)
(= |memory_model::choice_ws-ext_0_54_1_22_F_254| true)
(= |memory_model::choice_ws-ext_0_54_2_0_F_255| true)
(= |memory_model::choice_ws-ext_1_22_2_0_F_256| true)
(= |memory_model::choice_ws-ext_0_34_1_8_F_257| true)
(= |memory_model::choice_ws-ext_0_34_2_21_F_258| true)
(= |memory_model::choice_ws-ext_1_8_2_21_F_259| true)
(= |memory_model::choice_ws-ext_0_35_1_9_F_260| true)
(= |memory_model::choice_ws-ext_0_94_1_9_F_261| false)
(= |memory_model::choice_ws-ext_0_36_1_11_F_262| true)
(= |memory_model::choice_ws-ext_0_36_2_20_F_263| true)
(= |memory_model::choice_ws-ext_1_11_2_20_F_264| true)
(= |main$tmp_guard0#3| #b00000001)
(= |__CPROVER_next_thread_id#3| #b00000000000000000000000000000001)
(= |__CPROVER_next_thread_id#6| #b00000000000000000000000000000010)
(= |__unbuffered_cnt#2| #b00000000000000000000000000000011)
(= |x$w_buff0_used#2| #b00000000)
(= |x$r_buff0_thd0#2| #b00000000)
(= |x$w_buff0#2| #b00000000000000000000000000000001)
(= |x$w_buff1_used#2| #b00000000)
(= |x$r_buff1_thd0#2| #b00000000)
(= |x$w_buff1#2| #b00000000000000000000000000000000)
(= |x#2| #b00000000000000000000000000000001)
(= |x#4| #b00000000000000000000000000000001)
(= |x$w_buff0_used#6| #b00000000)
(= |x$w_buff1_used#6| #b00000000)
(= |x$r_buff0_thd0#8| #b00000000)
(= |x$r_buff1_thd0#7| #b00000000)
(= |weak$$choice1#2| #b00000001)
(= |weak$$choice1#3| #b10000000)
(= |__unbuffered_p0_EAX$read_delayed#2| #b00000001)
(= |__unbuffered_p0_EAX$read_delayed_var$object#1| #b00000000000000000000000000000001)
(= |__unbuffered_p0_EAX#2| #b00000000000000000000000000000000)
(= |__unbuffered_p0_EAX#8| #b00000000000000000000000000000001)
(= |y#2| #b00000000000000000000000000000010)
(= |__unbuffered_p1_EAX#2| #b00000000000000000000000000000010)
(= |__unbuffered_p1_EBX#2| #b00000000000000000000000000000000)
(= |main$tmp_guard1#2| #b00000000)
(= |main$tmp_guard1#3| #b10000000)
(= |main$tmp_guard1#6| #b00000000)
(= |pthread_create::1::this_thread_id!1@0#0| #b01000000000000000000000000000000)
(= |x#6| #b00000000000000000000000000000000)
(= |x$w_buff0_used#11| #b00000000)
(= |x$r_buff0_thd1#2| #b00000000)
(= |x$w_buff0#4| #b00000000000000000000000000000000)
(= |x$r_buff1_thd1#2| #b00000000)
(= |x$w_buff1_used#9| #b00000000)
(= |x$w_buff1#4| #b00000000000000000000000000000000)
(= |__unbuffered_cnt#4| #b00000000000000000000000000000001)
(= |pthread_create::1::this_thread_id!2@0#0| #b00000000000000000000000000000000)
(= |y#6| #b00000000000000000000000000000010)
(= |x#10| #b00000000000000000000000000000000)
(= |x$w_buff0_used#14| #b00000000)
(= |x$r_buff0_thd2#2| #b00000000)
(= |x$w_buff1_used#12| #b00000000)
(= |x$r_buff1_thd2#2| #b00000000)
(= |x$w_buff0#7| #b00000000000000000000000000000000)
(= |x$w_buff1#7| #b00000000000000000000000000000000)
(= |__unbuffered_cnt#7| #b00000000000000000000000000000000)
(= |pthread_create::1::this_thread_id!3@0#0| #b10000000000000000000000000000000)
(= |x$w_buff0#10| #b00000000000000000000000000000000)
(= |x$w_buff0_used#17| #b00000000)
(= |x$r_buff0_thd0#11| #b00000000)
(= |x$r_buff1_thd0#9| #b00000000)
(= |x$r_buff1_thd0#10| #b00000000)
(= |x$r_buff0_thd1#5| #b00000000)
(= |x$r_buff1_thd1#5| #b00000000)
(= |x$r_buff1_thd1#6| #b00000000)
(= |x$r_buff0_thd2#5| #b00000000)
(= |x$r_buff1_thd2#5| #b00000000)
(= |x$r_buff1_thd2#6| #b00000000)
(= |x$r_buff0_thd3#2| #b00000000)
(= |x$r_buff1_thd3#2| #b00000000)
(= |x$r_buff1_thd3#3| #b00000000)
(= |x$r_buff0_thd3#4| #b00000001)
(= |x$w_buff0_used#20| #b00000001)
(= |x$r_buff0_thd3#6| #b00000001)
(= |x$w_buff0#13| #b00000000000000000000000000000001)
(= |x$w_buff1_used#16| #b00000000)
(= |x$r_buff1_thd3#5| #b00000000)
(= |x$w_buff1#11| #b00000000000000000000000000000000)
(= |x#14| #b00000000000000000000000000000000)
(= |x#16| #b00000000000000000000000000000001)
(= |x$w_buff0_used#24| #b00000000)
(= |x$w_buff1_used#20| #b00000000)
(= |x$r_buff0_thd3#12| #b00000001)
(= |x$r_buff1_thd3#10| #b00000000)
(= |__unbuffered_cnt#10| #b00000000000000000000000000000010)
(= |__unbuffered_cnt#12| #b00000000000000000000000000000011)
(= |__CPROVER_threads_exited#1$wclk$8| #b01001101)
(= |__CPROVER_threads_exited#2$rclk$8| #b11111110)
(= |__CPROVER_threads_exited#5$wclk$8| #b11111101)
(= |__CPROVER_threads_exited#7$wclk$8| #b11101100)
(= |__CPROVER_threads_exited#4$rclk$8| #b11111100)
(= |__CPROVER_threads_exited#3$wclk$8| #b11111111)
(= |__CPROVER_threads_exited#6$rclk$8| #b11011110)
(= |x#9$wclk$8| #b10001101)
(= |x#2$rclk$8| #b11111100)
(= |x#13$wclk$8| #b10100110)
(= |x#17$wclk$8| #b11001010)
(= |x#1$wclk$8| #b01110000)
(= |x#6$rclk$8| #b10001101)
(= |x#5$wclk$8| #b11111100)
(= |x#10$rclk$8| #b10100110)
(= |x#14$rclk$8| #b11001010)
(= |__unbuffered_cnt#6$wclk$8| #b11011000)
(= |__unbuffered_cnt#2$rclk$8| #b11110111)
(= |__unbuffered_cnt#9$wclk$8| #b10101110)
(= |__unbuffered_cnt#13$wclk$8| #b11011101)
(= |__unbuffered_cnt#1$wclk$8| #b01001110)
(= |__unbuffered_cnt#4$rclk$8| #b11011000)
(= |__unbuffered_cnt#7$rclk$8| #b10101110)
(= |__unbuffered_cnt#10$rclk$8| #b11011101)
(= |__unbuffered_p0_EAX#11$wclk$8| #b10001101)
(= |__unbuffered_p0_EAX#2$rclk$8| #b11111101)
(= |__unbuffered_p0_EAX$read_delayed#4$wclk$8| #b10001101)
(= |__unbuffered_p0_EAX$read_delayed#2$rclk$8| #b11111101)
(= |__unbuffered_p1_EAX#4$wclk$8| #b10100101)
(= |__unbuffered_p1_EAX#2$rclk$8| #b11111101)
(= |__unbuffered_p1_EBX#4$wclk$8| #b10100110)
(= |__unbuffered_p1_EBX#2$rclk$8| #b11111101)
(= |main$tmp_guard1#5| #b00000000)
(= |x$r_buff0_thd0#1$wclk$8| #b01110011)
(= |x$r_buff0_thd0#11$rclk$8| #b10110000)
(= |x$r_buff0_thd0#10$wclk$8| #b11111100)
(= |x$r_buff0_thd1#1$wclk$8| #b01111001)
(= |x$r_buff0_thd1#2$rclk$8| #b10001101)
(= |x$r_buff0_thd1#5$rclk$8| #b10110000)
(= |x$r_buff0_thd1#4$wclk$8| #b10001101)
(= |x$r_buff0_thd2#1$wclk$8| #b01111010)
(= |x$r_buff0_thd2#2$rclk$8| #b10100110)
(= |x$r_buff0_thd2#5$rclk$8| #b10110000)
(= |x$r_buff0_thd2#4$wclk$8| #b10100110)
(= |x$r_buff0_thd3#1$wclk$8| #b01111101)
(= |x$r_buff0_thd3#2$rclk$8| #b10110000)
(= |x$r_buff0_thd3#6$rclk$8| #b11001010)
(= |x$r_buff1_thd0#11$wclk$8| #b10110000)
(= |x$r_buff1_thd0#2$rclk$8| #b11111100)
(= |x$r_buff1_thd0#1$wclk$8| #b01111110)
(= |x$r_buff1_thd0#10$rclk$8| #b10110000)
(= |x$r_buff1_thd0#8$wclk$8| #b11111100)
(= |x$r_buff1_thd1#1$wclk$8| #b01111111)
(= |x$r_buff1_thd1#2$rclk$8| #b10001101)
(= |x$r_buff1_thd1#7$wclk$8| #b10110000)
(= |x$r_buff1_thd1#6$rclk$8| #b10110000)
(= |x$r_buff1_thd1#4$wclk$8| #b10001101)
(= |x$r_buff1_thd2#1$wclk$8| #b10000000)
(= |x$r_buff1_thd2#2$rclk$8| #b10100110)
(= |x$r_buff1_thd2#7$wclk$8| #b10110000)
(= |x$r_buff1_thd2#6$rclk$8| #b10110000)
(= |x$r_buff1_thd2#4$wclk$8| #b10100110)
(= |x$r_buff1_thd3#1$wclk$8| #b10000001)
(= |x$r_buff1_thd3#3$rclk$8| #b10110000)
(= |x$r_buff1_thd3#5$rclk$8| #b11001010)
(= |x$w_buff0#6$wclk$8| #b10001101)
(= |x$w_buff0#2$rclk$8| #b11111100)
(= |x$w_buff0#9$wclk$8| #b10100110)
(= |x$w_buff0#12$wclk$8| #b10110000)
(= |x$w_buff0#1$wclk$8| #b10000100)
(= |x$w_buff0#4$rclk$8| #b10001101)
(= |x$w_buff0#7$rclk$8| #b10100110)
(= |x$w_buff0#10$rclk$8| #b10110000)
(= |x$w_buff0#13$rclk$8| #b11001010)
(= |x$w_buff0_used#13$wclk$8| #b10001101)
(= |x$w_buff0_used#2$rclk$8| #b11111100)
(= |x$w_buff0_used#16$wclk$8| #b10100110)
(= |x$w_buff0_used#19$wclk$8| #b10110000)
(= |x$w_buff0_used#28$wclk$8| #b11001010)
(= |x$w_buff0_used#1$wclk$8| #b10000101)
(= |x$w_buff0_used#11$rclk$8| #b10001101)
(= |x$w_buff0_used#10$wclk$8| #b11111100)
(= |x$w_buff0_used#14$rclk$8| #b10100110)
(= |x$w_buff0_used#17$rclk$8| #b10110000)
(= |x$w_buff0_used#20$rclk$8| #b11001010)
(= |x$w_buff1#6$wclk$8| #b10001101)
(= |x$w_buff1#2$rclk$8| #b11111100)
(= |x$w_buff1#9$wclk$8| #b10100110)
(= |x$w_buff1#10$wclk$8| #b10110000)
(= |x$w_buff1#1$wclk$8| #b10000110)
(= |x$w_buff1#4$rclk$8| #b10001101)
(= |x$w_buff1#7$rclk$8| #b10100110)
(= |x$w_buff1#11$rclk$8| #b11001010)
(= |x$w_buff1_used#11$wclk$8| #b10001101)
(= |x$w_buff1_used#2$rclk$8| #b11111100)
(= |x$w_buff1_used#14$wclk$8| #b10100110)
(= |x$w_buff1_used#15$wclk$8| #b10110000)
(= |x$w_buff1_used#22$wclk$8| #b11001010)
(= |x$w_buff1_used#1$wclk$8| #b10000111)
(= |x$w_buff1_used#9$rclk$8| #b10001101)
(= |x$w_buff1_used#8$wclk$8| #b11111100)
(= |x$w_buff1_used#12$rclk$8| #b10100110)
(= |x$w_buff1_used#16$rclk$8| #b11001010)
(= |y#4$wclk$8| #b10001111)
(= |y#2$rclk$8| #b11111101)
(= |y#5$wclk$8| #b10100010)
(= |y#1$wclk$8| #b10001000)
(= |y#6$rclk$8| #b10100101)
(= |weak$$choice1#8$wclk$8| #b10001101)
(= |weak$$choice1#3$rclk$8| #b11111101)
(= __unbuffered_p0_EAX$read_delayed_var$object #b00000000000000000000000000000001)
(= |__unbuffered_p0_EAX#1$wclk$8| #b01001111)
(= |__unbuffered_p0_EAX#10$wclk$8| #b11111101)
(= |__unbuffered_p0_EAX$read_delayed#1$wclk$8| #b01100001)
(= |__unbuffered_p0_EAX$read_delayed_var#1$wclk$8| #b01100010)
(= |__unbuffered_p0_EAX$read_delayed_var#2$wclk$8| #b10001101)
(= |__unbuffered_p1_EAX#1$wclk$8| #b01101000)
(= |__unbuffered_p1_EBX#1$wclk$8| #b01101001)
(= |x$flush_delayed#1$wclk$8| #b01110001)
(= |x$flush_delayed#3$wclk$8| #b10001101)
(= |x$flush_delayed#5$wclk$8| #b10100110)
(= |x$mem_tmp#1$wclk$8| #b01110010)
(= |x$mem_tmp#2$wclk$8| #b10001101)
(= |x$mem_tmp#3$wclk$8| #b10100110)
(= |x$r_buff0_thd3#5$wclk$8| #b10110000)
(= |x$r_buff0_thd3#14$wclk$8| #b11001010)
(= |x$r_buff1_thd3#4$wclk$8| #b10110000)
(= |x$r_buff1_thd3#11$wclk$8| #b11001010)
(= |weak$$choice0#1$wclk$8| #b01101100)
(= |weak$$choice0#2$wclk$8| #b10001101)
(= |weak$$choice0#3$wclk$8| #b10100110)
(= |weak$$choice1#1$wclk$8| #b01101101)
(= |weak$$choice1#7$wclk$8| #b11111101)
(= |weak$$choice2#1$wclk$8| #b01101110)
(= |weak$$choice2#2$wclk$8| #b10001101)
(= |weak$$choice2#3$wclk$8| #b10100110)
(= t1$58$spwnclk$8 #b10001100)
(= t1$63$spwnclk$8 #b10011101)
(= t1$68$spwnclk$8 #b10100001)
(= |main::1::t1687!0@1$wclk$8| #b00000000)
(= |main::1::t1688!0@1$wclk$8| #b01000000)
(= __unbuffered_p0_EAX$read_delayed_var$object$wclk$8 #b01000001)
(= |__CPROVER_dead_object#1$wclk$8| #b01000010)
(= |__CPROVER_deallocated#1$wclk$8| #b01000011)
(= |__CPROVER_malloc_is_new_array#1$wclk$8| #b01000100)
(= |__CPROVER_malloc_object#1$wclk$8| #b01001000)
(= |__CPROVER_malloc_size#1$wclk$8| #b01001001)
(= |__CPROVER_memory_leak#1$wclk$8| #b01001010)
(= |__CPROVER_next_thread_id#1$wclk$8| #b01001011)
(= |__CPROVER_pipe_count#1$wclk$8| #b01001100)
(= |__unbuffered_p0_EAX$flush_delayed#1$wclk$8| #b01010011)
(= |__unbuffered_p0_EAX$mem_tmp#1$wclk$8| #b01010100)
(= |__unbuffered_p0_EAX$r_buff0_thd0#1$wclk$8| #b01010101)
(= |__unbuffered_p0_EAX$r_buff0_thd1#1$wclk$8| #b01010110)
(= |__unbuffered_p0_EAX$r_buff0_thd2#1$wclk$8| #b01010111)
(= |__unbuffered_p0_EAX$r_buff0_thd3#1$wclk$8| #b01011010)
(= |__unbuffered_p0_EAX$r_buff1_thd0#1$wclk$8| #b01011011)
(= |__unbuffered_p0_EAX$r_buff1_thd1#1$wclk$8| #b01011100)
(= |__unbuffered_p0_EAX$r_buff1_thd2#1$wclk$8| #b01011111)
(= |__unbuffered_p0_EAX$r_buff1_thd3#1$wclk$8| #b01100000)
(= |__unbuffered_p0_EAX$w_buff0#1$wclk$8| #b01100011)
(= |__unbuffered_p0_EAX$w_buff0_used#1$wclk$8| #b01100101)
(= |__unbuffered_p0_EAX$w_buff1#1$wclk$8| #b01100110)
(= |__unbuffered_p0_EAX$w_buff1_used#1$wclk$8| #b01100111)
(= |main$tmp_guard0#1$wclk$8| #b01101010)
(= |main$tmp_guard1#1$wclk$8| #b01101011)
(= |x$read_delayed#1$wclk$8| #b10000010)
(= |x$read_delayed_var#1$wclk$8| #b10000011)
(= |main::1::t1686!0@1#1$wclk$8| #b10001001)
(= |__CPROVER_next_thread_id#2$wclk$8| #b10001010)
(= |main::1::t1686!0@1#2$wclk$8| #b10001011)
(= |main::1::t1687!0@1#1$wclk$8| #b10001101)
(= |__CPROVER_next_thread_id#3$rclk$8| #b10011010)
(= |__CPROVER_next_thread_id#5$wclk$8| #b10011010)
(= |main::1::t1687!0@1#2$wclk$8| #b10011011)
(= |main::1::t1688!0@1#1$wclk$8| #b10011110)
(= |__CPROVER_next_thread_id#6$rclk$8| #b10011111)
(= |__CPROVER_next_thread_id#8$wclk$8| #b10011111)
(= |main::1::t1688!0@1#2$wclk$8| #b10100000)
(= |main$tmp_guard0#2$wclk$8| #b11110111)
(= |main$tmp_guard0#3$rclk$8| #b11111000)
(= |x$r_buff0_thd0#2$rclk$8| #b11111100)
(= |main$tmp_guard1#3$rclk$8| #b11111101)
(= |__unbuffered_p0_EAX$read_delayed_var$object#1$rclk$8| #b11111101)
(= |main$tmp_guard1#4$wclk$8| #b11111101)
(= |main$tmp_guard1#5$rclk$8| #b11111110)
(= |main$tmp_guard1#6$rclk$8| #b11111111)
(= array_of.0 @fun_9)
(= |__CPROVER_threads_exited#2| @fun_11)
(= |__CPROVER_threads_exited#4| @fun_9)
(= |__CPROVER_threads_exited#6| @fun_9)
(function @fun_9
 (type (Array (_ BitVec 32) (_ BitVec 1)))
 (= (@fun_9 #b00000000000000000000000000000000) #b0)
 (default #b1))
(function @fun_11
 (type (Array (_ BitVec 32) (_ BitVec 1)))
 (default #b1))

real	0m0.023s
user	0m0.020s
sys	0m0.003s
State: AC Run_time: 0.025301456451416016